words_hard_train/4271.qaiger
aag 96 24 0 1 72
2
4
8
10
14
16
22
24
28
30
36
38
48
50
62
66
68
84
102
112
126
136
144
156
192
6 3 5
12 9 11
18 15 17
20 13 19
26 23 25
32 29 31
34 27 33
40 37 39
42 19 41
44 34 42
46 21 45
52 49 51
54 46 52
56 6 54
58 7 55
60 57 59
64 61 62
70 67 69
72 71 41
74 72 34
76 75 12
78 77 19
80 76 18
82 79 81
86 82 85
88 47 53
90 89 55
92 70 12
94 92 44
96 90 94
98 91 95
100 97 99
104 101 103
106 87 105
108 74 13
110 109 77
114 110 112
116 83 84
118 115 117
120 72 27
122 121 32
124 123 75
128 124 127
130 125 126
132 73 26
134 133 121
138 135 136
140 131 139
142 134 137
146 40 144
148 147 73
150 143 149
152 41 144
154 153 71
158 154 157
160 150 159
162 140 161
164 129 163
166 111 113
168 164 167
170 118 169
172 106 171
174 172 96
176 64 175
178 60 63
180 174 178
182 177 181
184 173 97
186 99 102
188 187 179
190 184 188
192 182 191
i0 1 x1[7]
i1 2 y1[7]
i2 1 x1[4]
i3 2 y1[4]
i4 1 x1[5]
i5 2 y1[5]
i6 1 x1[2]
i7 2 y1[2]
i8 1 x1[3]
i9 2 y1[3]
i10 1 x1[1]
i11 2 y1[1]
i12 1 x1[6]
i13 2 y1[6]
i14 2 y2[7]
i15 1 x1[0]
i16 2 y1[0]
i17 2 y2[5]
i18 2 y2[6]
i19 2 y2[4]
i20 2 y2[3]
i21 2 y2[2]
i22 2 y2[1]
i23 2 y2[0]
o0 bv[0]
c
simplified
  >=
    2 y2
    subtract
      or
        2 y1
        1 x1
      unary minus
        -174
