words_hard_train/4271.qaiger.qdimacs
p cnf 96 217
a 1 33 4 7 11 14 18 24 0
e 2 3 5 6 8 9 10 12 13 15 16 17 19 20 21 22 23 25 26 27 28 29 30 31 32 34 35 36 37 38 39 40 41 42 43 44 45 46 47 48 49 50 51 52 53 54 55 56 57 58 59 60 61 62 63 64 65 66 67 68 69 70 71 72 73 74 75 76 77 78 79 80 81 82 83 84 85 86 87 88 89 90 91 92 93 94 95 96 0
1 2 3 0
-1 -3 0
-2 -3 0
4 5 6 0
-4 -6 0
-5 -6 0
7 8 9 0
-7 -9 0
-8 -9 0
6 9 10 0
-6 -10 0
-9 -10 0
11 12 13 0
-11 -13 0
-12 -13 0
14 15 16 0
-14 -16 0
-15 -16 0
13 16 17 0
-13 -17 0
-16 -17 0
18 19 20 0
-18 -20 0
-19 -20 0
9 20 21 0
-9 -21 0
-20 -21 0
-17 -21 22 0
17 -22 0
21 -22 0
10 22 23 0
-10 -23 0
-22 -23 0
24 25 26 0
-24 -26 0
-25 -26 0
-23 -26 27 0
23 -27 0
26 -27 0
-3 -27 28 0
3 -28 0
27 -28 0
3 27 29 0
-3 -29 0
-27 -29 0
28 29 30 0
-28 -30 0
-29 -30 0
30 -31 32 0
-30 -32 0
31 -32 0
33 34 35 0
-33 -35 0
-34 -35 0
35 20 36 0
-35 -36 0
-20 -36 0
-36 -17 37 0
36 -37 0
17 -37 0
37 -6 38 0
-37 -38 0
6 -38 0
38 9 39 0
-38 -39 0
-9 -39 0
-38 -9 40 0
38 -40 0
9 -40 0
39 40 41 0
-39 -41 0
-40 -41 0
-41 42 43 0
41 -43 0
-42 -43 0
23 26 44 0
-23 -44 0
-26 -44 0
44 27 45 0
-44 -45 0
-27 -45 0
-35 -6 46 0
35 -46 0
6 -46 0
-46 -22 47 0
46 -47 0
22 -47 0
-45 -47 48 0
45 -48 0
47 -48 0
45 47 49 0
-45 -49 0
-47 -49 0
48 49 50 0
-48 -50 0
-49 -50 0
50 51 52 0
-50 -52 0
-51 -52 0
43 52 53 0
-43 -53 0
-52 -53 0
-37 6 54 0
37 -54 0
-6 -54 0
54 38 55 0
-54 -55 0
-38 -55 0
-55 -56 57 0
55 -57 0
56 -57 0
41 -42 58 0
-41 -58 0
42 -58 0
57 58 59 0
-57 -59 0
-58 -59 0
-36 13 60 0
36 -60 0
-13 -60 0
60 -16 61 0
-60 -61 0
16 -61 0
61 37 62 0
-61 -62 0
-37 -62 0
-62 63 64 0
62 -64 0
-63 -64 0
62 -63 65 0
-62 -65 0
63 -65 0
36 -13 66 0
-36 -66 0
13 -66 0
66 60 67 0
-66 -67 0
-60 -67 0
67 -68 69 0
-67 -69 0
68 -69 0
65 69 70 0
-65 -70 0
-69 -70 0
-67 68 71 0
67 -71 0
-68 -71 0
-20 -72 73 0
20 -73 0
72 -73 0
73 36 74 0
-73 -74 0
-36 -74 0
71 74 75 0
-71 -75 0
-74 -75 0
20 -72 76 0
-20 -76 0
72 -76 0
76 35 77 0
-76 -77 0
-35 -77 0
-77 78 79 0
77 -79 0
-78 -79 0
-75 79 80 0
75 -80 0
-79 -80 0
-70 80 81 0
70 -81 0
-80 -81 0
64 81 82 0
-64 -82 0
-81 -82 0
55 56 83 0
-55 -83 0
-56 -83 0
-82 83 84 0
82 -84 0
-83 -84 0
-59 84 85 0
59 -85 0
-84 -85 0
-53 85 86 0
53 -86 0
-85 -86 0
-86 -48 87 0
86 -87 0
48 -87 0
-32 87 88 0
32 -88 0
-87 -88 0
-30 31 89 0
30 -89 0
-31 -89 0
-87 -89 90 0
87 -90 0
89 -90 0
88 90 91 0
-88 -91 0
-90 -91 0
86 48 92 0
-86 -92 0
-48 -92 0
49 -51 93 0
-49 -93 0
51 -93 0
93 89 94 0
-93 -94 0
-89 -94 0
-92 -94 95 0
92 -95 0
94 -95 0
-91 95 96 0
91 -96 0
-95 -96 0
96 0
